0 2188
1 2091
2 1852
3 1820
4 1799
5 1739
6 1688
7 1664
8 1664
9 1542
10 1529
11 1525
12 1525
13 1461
14 1461
15 1434
16 1409
17 1409
18 1409
19 1402
20 1366
21 1366
22 1366
23 1340
24 1340
25 1307
26 1275
27 1275
28 1255
29 1255
30 1255
31 1247
32 1245
33 1240
34 1231
35 1204
36 1204
37 1204
38 1199
39 1199
40 1168
41 1162
42 1128
43 1092
44 1089
45 1089
46 1089
47 1086
48 1076
49 1069
50 1069
51 1069
52 1056
53 1056
54 1056
55 1055
56 1054
57 1054
58 1054
59 1042
60 1042
61 1042
62 1042
63 1035
64 1035
65 1026
66 1026
67 1026
68 1026
69 1026
70 1026
71 1026
72 1026
73 1026
74 1026
75 1015
76 1015
77 1015
78 1015
79 1013
80 1010
81 1010
82 1010
83 1010
84 1007
85 995
86 995
87 995
88 995
89 995
90 995
91 978
92 978
93 978
94 978
95 978
96 978
97 978
98 978
99 978
100 978
101 962
102 962
103 962
104 962
105 962
106 962
107 949
108 949
109 947
110 939
111 939
112 939
113 937
114 937
115 932
116 932
117 932
118 914
119 909
120 909
121 900
122 900
123 900
124 900
125 898
126 898
127 898
128 898
129 889
130 889
131 889
132 889
133 889
134 888
135 877
136 877
137 877
138 877
139 872
140 872
141 872
142 868
143 863
144 857
145 857
146 857
147 857
148 848
149 848
150 848
151 848
152 848
153 848
154 848
155 848
156 848
157 848
158 848
159 846
160 846
161 845
162 845
163 845
164 845
165 845
166 845
167 843
168 841
169 840
170 840
171 839
172 839
173 839
174 839
175 839
176 839
177 838
178 838
179 838
180 838
181 838
182 838
183 837
184 837
185 836
186 836
187 836
188 836
189 835
190 833
191 833
192 833
193 833
194 833
195 833
196 833
197 833
198 833
199 833
200 833
201 832
202 832
203 832
204 832
205 832
206 832
207 832
208 832
209 832
210 832
211 832
212 832
213 832
214 832
215 832
216 832
217 832
218 832
219 832
220 832
221 832
222 832
223 832
224 832
225 832
226 832
227 832
228 832
229 832
230 832
231 832
232 832
233 832
234 832
235 832
236 832
237 832
238 832
239 832
240 832
241 832
242 832
243 832
244 832
245 832
246 832
247 832
248 832
249 832
250 832
251 832
252 832
253 832
254 832
255 832
256 832
257 832
258 832
259 832
260 832
261 832
262 832
263 832
264 832
265 832
266 832
267 832
268 832
269 832
270 832
271 832
272 832
273 832
274 832
275 832
276 832
277 832
278 832
279 832
280 832
281 832
282 832
283 832
284 832
285 832
286 832
287 832
288 832
289 832
290 832
291 832
292 832
293 832
294 832
295 832
296 832
297 832
298 832
299 832
300 832
301 832
302 832
303 832
304 832
305 832
306 832
307 832
308 832
309 832
310 832
311 832
312 832
313 832
314 832
315 832
316 832
317 832
318 832
319 832
320 832
321 832
322 832
323 832
324 832
325 832
326 832
327 832
328 832
329 832
330 832
331 832
332 832
333 832
334 832
335 832
336 832
337 832
338 832
339 832
340 832
341 832
342 832
343 832
344 832
345 832
346 832
347 832
348 832
349 832
350 832
351 832
352 832
353 832
354 832
355 832
356 832
357 832
358 832
359 832
360 832
361 832
362 832
363 832
364 832
365 832
366 832
367 832
368 832
369 832
370 832
371 832
372 832
373 832
374 832
375 832
376 832
377 832
378 832
379 832
380 832
381 832
382 832
383 832
384 832
385 832
386 832
387 832
388 832
389 832
390 832
391 832
392 832
393 832
394 832
395 832
396 832
397 832
398 832
399 832
400 832
401 832
402 832
403 832
404 832
405 832
406 832
407 832
408 832
409 832
410 832
411 832
412 832
413 832
414 832
415 832
416 832
417 832
418 832
419 832
420 832
421 832
422 832
423 832
424 832
425 832
426 832
427 832
428 832
429 832
430 832
431 832
432 832
433 832
434 832
435 832
436 832
437 832
438 832
439 832
440 832
441 832
442 832
443 832
444 832
445 832
446 832
447 832
448 832
449 832
450 832
451 832
452 832
453 832
454 832
455 832
456 832
457 832
458 832
459 832
460 832
461 832
462 832
463 832
464 832
465 832
466 832
467 832
468 832
469 832
470 832
471 832
472 832
473 832
474 832
475 832
476 832
477 832
478 832
479 832
480 832
481 832
482 832
483 832
484 832
485 832
486 832
487 832
488 832
489 832
490 832
491 832
492 832
493 832
494 832
495 832
496 832
497 832
498 832
499 832
500 832
501 832
502 832
503 832
504 832
505 832
506 832
507 832
508 832
509 832
510 832
511 832
512 832
513 832
514 832
515 832
516 832
517 832
518 832
519 832
520 832
521 832
522 832
523 832
524 832
525 832
526 832
527 832
528 832
529 832
530 832
531 832
532 832
533 832
534 832
535 832
536 832
537 832
538 832
539 832
540 832
541 832
542 832
543 832
544 832
545 832
546 832
547 832
548 832
549 832
550 832
551 832
552 832
553 832
554 832
555 832
556 832
557 832
558 832
559 832
560 832
561 832
562 832
563 832
564 832
565 832
566 832
567 832
568 832
569 832
570 832
571 832
572 832
573 832
574 832
575 832
576 832
577 832
578 832
579 832
580 832
581 832
582 832
583 832
584 832
585 832
586 832
587 832
588 832
589 832
590 832
591 832
592 832
593 832
594 832
595 832
596 832
597 832
598 832
599 832
600 832
601 832
602 832
603 832
604 832
605 832
606 832
607 832
608 832
609 832
610 832
611 832
612 832
613 832
614 832
615 832
616 832
617 832
618 832
619 832
620 832
621 832
622 832
623 832
624 832
625 832
626 832
627 832
628 832
629 832
630 832
631 832
632 832
633 832
634 832
635 832
636 832
637 832
638 832
639 832
640 832
641 832
642 832
643 832
644 832
645 832
646 832
647 832
648 832
649 832
650 832
651 832
652 832
653 832
654 832
655 832
656 832
657 832
658 832
659 832
660 832
661 832
662 832
663 832
664 832
665 832
666 832
667 832
668 832
669 832
670 832
671 832
672 832
673 832
674 832
675 832
676 832
677 832
678 832
679 832
680 832
681 832
682 832
683 832
684 832
685 832
686 832
687 832
688 832
689 832
690 832
691 832
692 832
693 832
694 832
695 832
696 832
697 832
698 832
699 832
700 832
701 832
702 832
703 832
704 832
705 832
706 832
707 832
708 832
709 832
710 832
711 832
712 832
713 832
714 832
715 832
716 832
717 832
718 832
719 832
720 832
721 832
722 832
723 832
724 832
725 832
726 832
727 832
728 832
729 832
730 832
731 832
732 832
733 832
734 832
735 832
736 832
737 832
738 832
739 832
740 832
741 832
742 832
743 832
744 832
745 832
746 832
747 832
748 832
749 832
750 832
751 832
752 832
753 832
754 832
755 832
756 832
757 832
758 832
759 832
760 832
761 832
762 832
763 832
764 832
765 832
766 832
767 832
768 832
769 832
770 832
771 832
772 832
773 832
774 832
775 832
776 832
777 832
778 832
779 832
780 832
781 832
782 832
783 832
784 832
785 832
786 832
787 832
788 832
789 832
790 832
791 832
792 832
793 832
794 832
795 832
796 832
797 832
798 832
799 832
800 832
801 832
802 832
803 832
804 832
805 832
806 832
807 832
808 832
809 832
810 832
811 832
812 832
813 832
814 832
815 832
816 832
817 832
818 832
819 832
820 832
821 832
822 832
823 832
824 832
825 832
826 832
827 832
828 832
829 832
830 832
831 832
832 832
833 832
834 832
835 832
836 832
837 832
838 832
839 832
840 832
841 832
842 832
843 832
844 832
845 832
846 832
847 832
848 832
849 832
850 832
851 832
852 832
853 832
854 832
855 832
856 832
857 832
858 832
859 832
860 832
861 832
862 832
863 832
864 832
865 832
866 832
867 832
868 832
869 832
870 832
871 832
872 832
873 832
874 832
875 832
876 832
877 832
878 832
879 832
880 832
881 832
882 832
883 832
884 832
885 832
886 832
887 832
888 832
889 832
890 832
891 832
892 832
893 832
894 832
895 832
896 832
897 832
898 832
899 832
900 832
901 832
902 832
903 832
904 832
905 832
906 832
907 832
908 832
909 832
910 832
911 832
912 832
913 832
914 832
915 832
916 832
917 832
918 832
919 832
920 832
921 832
922 832
923 832
924 832
925 832
926 832
927 832
928 832
929 832
930 832
931 832
932 832
933 832
934 832
935 832
936 832
937 832
938 832
939 832
940 832
941 832
942 832
943 832
944 832
945 832
946 832
947 832
948 832
949 832
950 832
951 832
952 832
953 832
954 832
955 832
956 832
957 832
958 832
959 832
960 832
961 832
962 832
963 832
964 832
965 832
966 832
967 832
968 832
969 832
970 832
971 832
972 832
973 832
974 832
975 832
976 832
977 832
978 832
979 832
980 832
981 832
982 832
983 832
984 832
985 832
986 832
987 832
988 832
989 832
990 832
991 832
992 832
993 832
994 832
995 832
996 832
997 832
998 832
999 832
Best: [[21,6,26,11,16,30],
       [31,17,2,13],
       [15,29,5,12,9,19,10,23,28],
       [27,8,14,18,20,32,22],
       [7,4,3,24,25]], fitness: 832
